\ This file has been generated by DOcplex
\ ENCODING=ISO-8859-1
\Problem name: tiger problem

Minimize
 obj: V
Subject To
 c1: V + 118.034861961873 a1_0 + 188.012753952525 a1_1 + 188.012753952525 a1_2
      >= 0
 c2: V + 188.012753952525 a1_0 + 157.012753952525 a1_1 + 242.012753952525 a1_2
      >= 0
 c3: V + 188.012753952525 a1_0 + 242.012753952525 a1_1 + 157.012753952525 a1_2
      >= 0
 c4: a1_0 + a1_1 + a1_2 = 1

Bounds
 0 <= a1_0 <= 1
 0 <= a1_1 <= 1
 0 <= a1_2 <= 1
       V Free

Binaries
 a1_0 a1_1 a1_2
End
